certificates/rado_a7_c278_N40.cnf
c Rad2 upper bound instance: x1 + 7*x2 - x3 = 278, interval [1,40]
p cnf 40 286
1 3 40 0
-1 -3 -40 0
2 4 40 0
-2 -4 -40 0
3 5 40 0
-3 -5 -40 0
4 6 40 0
-4 -6 -40 0
5 7 40 0
-5 -7 -40 0
1 6 39 0
-1 -6 -39 0
6 8 40 0
-6 -8 -40 0
2 7 39 0
-2 -7 -39 0
7 9 40 0
-7 -9 -40 0
3 8 39 0
-3 -8 -39 0
8 10 40 0
-8 -10 -40 0
4 9 39 0
-4 -9 -39 0
9 11 40 0
-9 -11 -40 0
5 10 39 0
-5 -10 -39 0
10 12 40 0
-10 -12 -40 0
6 11 39 0
-6 -11 -39 0
11 13 40 0
-11 -13 -40 0
7 12 39 0
-7 -12 -39 0
12 14 40 0
-12 -14 -40 0
1 13 38 0
-1 -13 -38 0
8 13 39 0
-8 -13 -39 0
13 15 40 0
-13 -15 -40 0
2 14 38 0
-2 -14 -38 0
9 14 39 0
-9 -14 -39 0
14 16 40 0
-14 -16 -40 0
3 15 38 0
-3 -15 -38 0
10 15 39 0
-10 -15 -39 0
15 17 40 0
-15 -17 -40 0
4 16 38 0
-4 -16 -38 0
11 16 39 0
-11 -16 -39 0
16 18 40 0
-16 -18 -40 0
5 17 38 0
-5 -17 -38 0
12 17 39 0
-12 -17 -39 0
17 19 40 0
-17 -19 -40 0
6 18 38 0
-6 -18 -38 0
13 18 39 0
-13 -18 -39 0
18 20 40 0
-18 -20 -40 0
7 19 38 0
-7 -19 -38 0
14 19 39 0
-14 -19 -39 0
19 21 40 0
-19 -21 -40 0
1 20 37 0
-1 -20 -37 0
8 20 38 0
-8 -20 -38 0
15 20 39 0
-15 -20 -39 0
20 22 40 0
-20 -22 -40 0
2 21 37 0
-2 -21 -37 0
9 21 38 0
-9 -21 -38 0
16 21 39 0
-16 -21 -39 0
21 23 40 0
-21 -23 -40 0
3 22 37 0
-3 -22 -37 0
10 22 38 0
-10 -22 -38 0
17 22 39 0
-17 -22 -39 0
22 24 40 0
-22 -24 -40 0
4 23 37 0
-4 -23 -37 0
11 23 38 0
-11 -23 -38 0
18 23 39 0
-18 -23 -39 0
23 25 40 0
-23 -25 -40 0
5 24 37 0
-5 -24 -37 0
12 24 38 0
-12 -24 -38 0
19 24 39 0
-19 -24 -39 0
24 26 40 0
-24 -26 -40 0
6 25 37 0
-6 -25 -37 0
13 25 38 0
-13 -25 -38 0
20 25 39 0
-20 -25 -39 0
25 27 40 0
-25 -27 -40 0
7 26 37 0
-7 -26 -37 0
14 26 38 0
-14 -26 -38 0
21 26 39 0
-21 -26 -39 0
26 28 40 0
-26 -28 -40 0
1 27 36 0
-1 -27 -36 0
8 27 37 0
-8 -27 -37 0
15 27 38 0
-15 -27 -38 0
22 27 39 0
-22 -27 -39 0
27 29 40 0
-27 -29 -40 0
2 28 36 0
-2 -28 -36 0
9 28 37 0
-9 -28 -37 0
16 28 38 0
-16 -28 -38 0
23 28 39 0
-23 -28 -39 0
28 30 40 0
-28 -30 -40 0
3 29 36 0
-3 -29 -36 0
10 29 37 0
-10 -29 -37 0
17 29 38 0
-17 -29 -38 0
24 29 39 0
-24 -29 -39 0
29 31 40 0
-29 -31 -40 0
4 30 36 0
-4 -30 -36 0
11 30 37 0
-11 -30 -37 0
18 30 38 0
-18 -30 -38 0
25 30 39 0
-25 -30 -39 0
30 32 40 0
-30 -32 -40 0
5 31 36 0
-5 -31 -36 0
12 31 37 0
-12 -31 -37 0
19 31 38 0
-19 -31 -38 0
26 31 39 0
-26 -31 -39 0
31 33 40 0
-31 -33 -40 0
6 32 36 0
-6 -32 -36 0
13 32 37 0
-13 -32 -37 0
20 32 38 0
-20 -32 -38 0
27 32 39 0
-27 -32 -39 0
32 34 40 0
-32 -34 -40 0
7 33 36 0
-7 -33 -36 0
14 33 37 0
-14 -33 -37 0
21 33 38 0
-21 -33 -38 0
28 33 39 0
-28 -33 -39 0
33 35 40 0
-33 -35 -40 0
1 34 35 0
-1 -34 -35 0
8 34 36 0
-8 -34 -36 0
15 34 37 0
-15 -34 -37 0
22 34 38 0
-22 -34 -38 0
29 34 39 0
-29 -34 -39 0
34 36 40 0
-34 -36 -40 0
2 35 0
-2 -35 0
9 35 36 0
-9 -35 -36 0
16 35 37 0
-16 -35 -37 0
23 35 38 0
-23 -35 -38 0
30 35 39 0
-30 -35 -39 0
35 37 40 0
-35 -37 -40 0
3 35 36 0
-3 -35 -36 0
10 36 0
-10 -36 0
17 36 37 0
-17 -36 -37 0
24 36 38 0
-24 -36 -38 0
31 36 39 0
-31 -36 -39 0
36 38 40 0
-36 -38 -40 0
4 35 37 0
-4 -35 -37 0
11 36 37 0
-11 -36 -37 0
18 37 0
-18 -37 0
25 37 38 0
-25 -37 -38 0
32 37 39 0
-32 -37 -39 0
37 39 40 0
-37 -39 -40 0
5 35 38 0
-5 -35 -38 0
12 36 38 0
-12 -36 -38 0
19 37 38 0
-19 -37 -38 0
26 38 0
-26 -38 0
33 38 39 0
-33 -38 -39 0
38 40 0
-38 -40 0
6 35 39 0
-6 -35 -39 0
13 36 39 0
-13 -36 -39 0
20 37 39 0
-20 -37 -39 0
27 38 39 0
-27 -38 -39 0
34 39 0
-34 -39 0
7 35 40 0
-7 -35 -40 0
14 36 40 0
-14 -36 -40 0
21 37 40 0
-21 -37 -40 0
28 38 40 0
-28 -38 -40 0
35 39 40 0
-35 -39 -40 0
