certificates/rado_a7_c278_N40.drat
-40 0
38 0
-26 0
24 0
28 0
-12 0
-36 0
-16 0
10 0
14 0
34 0
18 0
-22 0
-2 0
-39 0
-6 0
-30 0
-37 0
20 0
17 0
27 0
35 0
4 0
0
